MARKOV
405
 2 2 2 2 2 2 2 2 2 2 2 2 2 2 2 2 2 2 2 2 2 2 2 2 2 2 2 2 2 2 2 2 2 2 2 2 2 2 2 2 2 2 2 2 2 2 2 2 2 2 2 2 2 2 2 2 2 2 2 2 2 2 2 2 2 2 2 2 2 2 2 2 2 2 2 2 2 2 2 2 2 2 2 2 2 2 2 2 2 2 2 2 2 2 2 2 2 2 2 2 2 2 2 2 2 2 2 2 2 2 2 2 2 2 2 2 2 2 2 2 2 2 2 2 2 2 2 2 2 2 2 2 2 2 2 2 2 2 2 2 2 2 2 2 2 2 2 2 2 2 2 2 2 2 2 2 2 2 2 2 2 2 2 2 2 2 2 2 2 2 2 2 2 2 2 2 2 2 2 2 2 2 2 2 2 2 2 2 2 2 2 2 2 2 2 2 2 2 2 2 2 2 2 2 2 2 2 2 2 2 2 2 2 2 2 2 2 2 2 2 2 2 2 2 2 2 2 2 2 2 2 2 2 2 2 2 2 2 2 2 2 2 2 2 2 2 2 2 2 2 2 2 2 2 2 2 2 2 2 2 2 2 2 2 2 2 2 2 2 2 2 2 2 2 2 2 2 2 2 2 2 2 2 2 2 2 2 2 2 2 2 2 2 2 2 2 2 2 2 2 2 2 2 2 2 2 2 2 2 2 2 2 2 2 2 2 2 2 2 2 2 2 2 2 2 2 2 2 2 2 2 2 2 2 2 2 2 2 2 2 2 2 2 2 2 2 2 2 2 2 2 2 2 2 2 2 2 2 2 2 2 2 2 2 2 2 2 2 2 2 2 2 2 2 2 2 2 2 2 2 2 2 2 2 2 2 2 2 2 2 2 2 2 2 2 2 2 2 2 2 2 2 2 2 2
414
3	35 67 404 
3	52 403 404 
3	80 402 403 
3	26 401 402 
3	45 400 401 
3	18 399 400 
3	79 398 399 
3	131 397 398 
3	37 396 397 
3	24 395 396 
3	34 394 395 
3	113 393 394 
3	60 392 393 
3	1 391 392 
3	97 390 391 
3	39 389 390 
3	103 388 389 
3	62 387 388 
1	387 
3	43 101 386 
3	139 385 386 
3	121 384 385 
3	133 383 384 
3	88 382 383 
3	74 381 382 
1	381 
3	53 79 380 
3	11 379 380 
3	119 378 379 
3	136 377 378 
3	132 376 377 
3	45 375 376 
1	375 
3	36 42 374 
3	3 373 374 
3	131 372 373 
3	11 371 372 
3	46 370 371 
3	84 369 370 
3	50 368 369 
3	119 367 368 
3	57 366 367 
3	59 365 366 
3	52 364 365 
3	2 363 364 
3	31 362 363 
3	95 361 362 
3	137 360 361 
1	360 
3	54 64 359 
3	107 358 359 
3	0 357 358 
3	90 356 357 
3	77 355 356 
3	22 354 355 
3	93 353 354 
3	55 352 353 
3	52 351 352 
3	5 350 351 
3	127 349 350 
3	96 348 349 
3	16 347 348 
3	76 346 347 
3	116 345 346 
3	129 344 345 
3	131 343 344 
3	4 342 343 
3	37 341 342 
3	49 340 341 
3	84 339 340 
3	13 338 339 
3	89 337 338 
3	33 336 337 
3	86 335 336 
3	115 334 335 
3	95 333 334 
3	125 332 333 
3	10 331 332 
3	112 330 331 
3	98 329 330 
3	124 328 329 
3	70 327 328 
3	68 326 327 
3	51 325 326 
3	108 324 325 
3	7 323 324 
3	3 322 323 
3	28 321 322 
3	46 320 321 
3	72 319 320 
3	78 318 319 
3	60 317 318 
3	118 316 317 
3	59 315 316 
3	82 314 315 
3	87 313 314 
3	109 312 313 
3	73 311 312 
1	311 
3	36 42 310 
3	3 309 310 
3	131 308 309 
3	11 307 308 
3	46 306 307 
3	50 305 306 
3	84 304 305 
3	119 303 304 
3	57 302 303 
3	59 301 302 
3	52 300 301 
3	2 299 300 
3	31 298 299 
3	95 297 298 
3	137 296 297 
3	116 295 296 
1	295 
3	54 64 294 
3	0 293 294 
3	107 292 293 
3	90 291 292 
3	77 290 291 
3	22 289 290 
3	93 288 289 
3	5 287 288 
3	52 286 287 
3	55 285 286 
3	127 284 285 
3	76 283 284 
3	129 282 283 
3	4 281 282 
3	131 280 281 
3	49 279 280 
3	13 278 279 
3	89 277 278 
3	33 276 277 
3	115 275 276 
3	95 274 275 
3	125 273 274 
3	10 272 273 
3	112 271 272 
3	98 270 271 
3	68 269 270 
3	108 268 269 
3	51 267 268 
3	7 266 267 
3	28 265 266 
3	78 264 265 
3	60 263 264 
3	118 262 263 
3	59 261 262 
3	82 260 261 
3	87 259 260 
3	73 258 259 
1	258 
3	104 107 257 
3	47 256 257 
3	120 255 256 
3	21 254 255 
3	25 253 254 
3	48 252 253 
3	129 251 252 
3	91 250 251 
3	13 249 250 
3	19 248 249 
3	65 247 248 
3	61 246 247 
3	14 245 246 
3	105 244 245 
3	115 243 244 
3	125 242 243 
3	112 241 242 
3	98 240 241 
3	70 239 240 
3	124 238 239 
3	117 237 238 
3	40 236 237 
3	121 235 236 
3	56 234 235 
3	46 233 234 
3	29 232 233 
3	9 231 232 
3	69 230 231 
3	114 229 230 
3	119 228 229 
3	100 227 228 
3	20 226 227 
3	136 225 226 
3	44 224 225 
3	38 223 224 
3	55 222 223 
3	26 221 222 
3	127 220 221 
3	74 219 220 
3	122 218 219 
3	42 217 218 
3	37 216 217 
3	6 215 216 
3	66 214 215 
3	33 213 214 
3	57 212 213 
3	130 211 212 
3	94 210 211 
3	31 209 210 
3	2 208 209 
3	95 207 208 
3	36 206 207 
3	99 205 206 
3	12 204 205 
3	50 203 204 
3	123 202 203 
3	83 201 202 
3	30 200 201 
3	81 199 200 
3	60 198 199 
3	59 197 198 
3	128 196 197 
3	109 195 196 
3	64 194 195 
3	54 193 194 
3	0 192 193 
3	90 191 192 
3	22 190 191 
3	93 189 190 
3	126 188 189 
3	5 187 188 
3	132 186 187 
3	16 185 186 
3	116 184 185 
3	4 183 184 
3	131 182 183 
3	84 181 182 
3	49 180 181 
3	63 179 180 
3	10 178 179 
3	134 177 178 
3	85 176 177 
3	17 175 176 
3	111 174 175 
3	51 173 174 
3	75 172 173 
3	92 171 172 
3	72 170 171 
3	78 169 170 
3	41 168 169 
3	102 167 168 
3	118 166 167 
3	58 165 166 
3	77 164 165 
3	106 163 164 
3	15 162 163 
3	52 161 162 
3	96 160 161 
3	76 159 160 
3	11 158 159 
3	89 157 158 
3	135 156 157 
3	110 155 156 
3	86 154 155 
3	71 153 154 
3	138 152 153 
3	68 151 152 
3	27 150 151 
3	23 149 150 
3	108 148 149 
3	8 147 148 
3	7 146 147 
3	3 145 146 
3	28 144 145 
3	82 143 144 
3	87 142 143 
3	32 141 142 
3	73 140 141 
1	140 
1	64 
1	104 
1	54 
1	107 
1	0 
1	90 
1	67 
1	22 
1	47 
1	126 
1	93 
1	120 
1	21 
1	5 
1	25 
1	132 
1	16 
1	116 
1	43 
1	48 
1	129 
1	91 
1	131 
1	4 
1	49 
1	84 
1	13 
1	19 
1	61 
1	65 
1	1 
1	139 
1	14 
1	97 
1	105 
1	115 
1	63 
1	125 
1	10 
1	112 
1	98 
1	124 
1	70 
1	117 
1	40 
1	134 
1	85 
1	121 
1	17 
1	56 
1	80 
1	111 
1	51 
1	75 
1	88 
1	18 
1	92 
1	79 
1	46 
1	72 
1	29 
1	41 
1	9 
1	78 
1	101 
1	102 
1	133 
1	118 
1	69 
1	114 
1	58 
1	62 
1	137 
1	77 
1	106 
1	119 
1	20 
1	100 
1	136 
1	44 
1	15 
1	38 
1	55 
1	52 
1	26 
1	45 
1	96 
1	127 
1	76 
1	122 
1	74 
1	42 
1	53 
1	11 
1	37 
1	6 
1	66 
1	135 
1	33 
1	89 
1	57 
1	130 
1	110 
1	113 
1	86 
1	71 
1	94 
1	39 
1	2 
1	31 
1	95 
1	103 
1	36 
1	35 
1	138 
1	99 
1	12 
1	50 
1	68 
1	27 
1	23 
1	123 
1	108 
1	8 
1	7 
1	3 
1	83 
1	28 
1	24 
1	30 
1	34 
1	81 
1	60 
1	128 
1	59 
1	82 
1	87 
1	109 
1	32 
1	73 
0	

8
 1 0 0.6 0.4 0.5 0.5 0.3 0.7
8
 1 0 0 1 0.5 0 0.5 1
8
 1 0 0 1 0.4 0 0.6 1
8
 1 0 0 1 0.5 0 0.5 1
8
 1 0 0 1 0.7 0 0.3 1
8
 1 0 0 1 0.5 0 0.5 1
8
 1 0 0 1 0.7 0 0.3 1
8
 1 0 0 1 0.5 0 0.5 1
8
 1 0 0 1 0.6 0 0.4 1
8
 1 0 0 1 0.1 0 0.9 1
8
 1 0 0 1 0.6 0 0.4 1
8
 1 0 0 1 0.5 0 0.5 1
8
 1 0 0 1 0.5 0 0.5 1
8
 1 0 0 1 0.4 0 0.6 1
8
 1 0 0 1 0.4 0 0.6 1
8
 1 0 0 1 0.4 0 0.6 1
8
 1 0 0 1 0.3 0 0.7 1
8
 1 0 0 1 0 0 1 1
2
 0.03 1
8
 1 0 0.05 0.95 0.1 0.9 0.005 0.995
8
 1 0 0 1 0.2 0 0.8 1
8
 1 0 0 1 0.5 0 0.5 1
8
 1 0 0 1 0.05 0 0.95 1
8
 1 0 0 1 0 0 1 1
8
 1 0 0 1 0.2 0 0.8 1
2
 0.03 1
8
 1 0 0.8 0.2 0.5 0.5 0.4 0.6
8
 1 0 0 1 0.09 0 0.91 1
8
 1 0 0 1 0.09 0 0.91 1
8
 1 0 0 1 0.09 0 0.91 1
8
 1 0 0 1 0.09 0 0.91 1
8
 1 0 0 1 0.8 0 0.2 1
2
 0.03 1
8
 1 0 0.57 0.43 0.5 0.5 0.285 0.715
8
 1 0 0 1 0.1 0 0.9 1
8
 1 0 0 1 0.09 0 0.91 1
8
 1 0 0 1 0.5 0 0.5 1
8
 1 0 0 1 0.1 0 0.9 1
8
 1 0 0 1 0 0 1 1
8
 1 0 0 1 0.5 0 0.5 1
8
 1 0 0 1 0.5 0 0.5 1
8
 1 0 0 1 0.7 0 0.3 1
8
 1 0 0 1 0.01 0 0.99 1
8
 1 0 0 1 0.5 0 0.5 1
8
 1 0 0 1 0.5 0 0.5 1
8
 1 0 0 1 0.4 0 0.6 1
8
 1 0 0 1 0.1 0 0.9 1
8
 1 0 0 1 0.01 0 0.99 1
2
 0.03 1
8
 1 0 0 1 0 1 0 1
8
 1 0 0 1 0 0 1 1
8
 1 0 0 1 0 0 1 1
8
 1 0 0 1 0 0 1 1
8
 1 0 0 1 0 0 1 1
8
 1 0 0 1 0 0 1 1
8
 1 0 0 1 0 0 1 1
8
 1 0 0 1 0 0 1 1
8
 1 0 0 1 0 0 1 1
8
 1 0 0 1 0 0 1 1
8
 1 0 0 1 0 0 1 1
8
 1 0 0 1 0 0 1 1
8
 1 0 0 1 0 0 1 1
8
 1 0 0 1 0 0 1 1
8
 1 0 0 1 0 0 1 1
8
 1 0 0 1 0 0 1 1
8
 1 0 0 1 0 0 1 1
8
 1 0 0 1 0 0 1 1
8
 1 0 0 1 0 0 1 1
8
 1 0 0 1 0 0 1 1
8
 1 0 0 1 0 0 1 1
8
 1 0 0 1 0 0 1 1
8
 1 0 0 1 0 0 1 1
8
 1 0 0 1 0 0 1 1
8
 1 0 0 1 0 0 1 1
8
 1 0 0 1 0 0 1 1
8
 1 0 0 1 0 0 1 1
8
 1 0 0 1 0 0 1 1
8
 1 0 0 1 0 0 1 1
8
 1 0 0 1 0 0 1 1
8
 1 0 0 1 0 0 1 1
8
 1 0 0 1 0 0 1 1
8
 1 0 0 1 0 0 1 1
8
 1 0 0 1 0 0 1 1
8
 1 0 0 1 0 0 1 1
8
 1 0 0 1 0 0 1 1
8
 1 0 0 1 0 0 1 1
8
 1 0 0 1 0 0 1 1
8
 1 0 0 1 0 0 1 1
8
 1 0 0 1 0 0 1 1
8
 1 0 0 1 0 0 1 1
8
 1 0 0 1 0 0 1 1
8
 1 0 0 1 0 0 1 1
8
 1 0 0 1 0 0 1 1
8
 1 0 0 1 0 0 1 1
8
 1 0 0 1 0 0 1 1
8
 1 0 0 1 0 0 1 1
8
 1 0 0 1 0 0 1 1
8
 1 0 0 1 0 0 1 1
2
 0.03 1
8
 1 0 0.57 0.43 0.5 0.5 0.285 0.715
8
 1 0 0 1 0.1 0 0.9 1
8
 1 0 0 1 0.09 0 0.91 1
8
 1 0 0 1 0.5 0 0.5 1
8
 1 0 0 1 0.1 0 0.9 1
8
 1 0 0 1 0.5 0 0.5 1
8
 1 0 0 1 0.01 0 0.99 1
8
 1 0 0 1 0.5 0 0.5 1
8
 1 0 0 1 0.7 0 0.3 1
8
 1 0 0 1 0.01 0 0.99 1
8
 1 0 0 1 0.5 0 0.5 1
8
 1 0 0 1 0.5 0 0.5 1
8
 1 0 0 1 0.4 0 0.6 1
8
 1 0 0 1 0.1 0 0.9 1
8
 1 0 0 1 0.01 0 0.99 1
8
 1 0 0 1 0.2 0 0.8 1
2
 0.03 1
8
 1 0 0.05 0.95 0.05 0.95 0.0025 0.9975
8
 1 0 0 1 0.05 0 0.95 1
8
 1 0 0 1 0.05 0 0.95 1
8
 1 0 0 1 0.05 0 0.95 1
8
 1 0 0 1 0.05 0 0.95 1
8
 1 0 0 1 0.05 0 0.95 1
8
 1 0 0 1 0.05 0 0.95 1
8
 1 0 0 1 0.05 0 0.95 1
8
 1 0 0 1 0.05 0 0.95 1
8
 1 0 0 1 0.05 0 0.95 1
8
 1 0 0 1 0.05 0 0.95 1
8
 1 0 0 1 0.05 0 0.95 1
8
 1 0 0 1 0.05 0 0.95 1
8
 1 0 0 1 0.05 0 0.95 1
8
 1 0 0 1 0.05 0 0.95 1
8
 1 0 0 1 0.05 0 0.95 1
8
 1 0 0 1 0.05 0 0.95 1
8
 1 0 0 1 0.05 0 0.95 1
8
 1 0 0 1 0.05 0 0.95 1
8
 1 0 0 1 0.05 0 0.95 1
8
 1 0 0 1 0.05 0 0.95 1
8
 1 0 0 1 0.05 0 0.95 1
8
 1 0 0 1 0.05 0 0.95 1
8
 1 0 0 1 0.05 0 0.95 1
8
 1 0 0 1 0.05 0 0.95 1
8
 1 0 0 1 0.05 0 0.95 1
8
 1 0 0 1 0.05 0 0.95 1
8
 1 0 0 1 0.05 0 0.95 1
8
 1 0 0 1 0.05 0 0.95 1
8
 1 0 0 1 0.05 0 0.95 1
8
 1 0 0 1 0.05 0 0.95 1
8
 1 0 0 1 0.05 0 0.95 1
8
 1 0 0 1 0.05 0 0.95 1
8
 1 0 0 1 0.05 0 0.95 1
8
 1 0 0 1 0.05 0 0.95 1
8
 1 0 0 1 0.05 0 0.95 1
8
 1 0 0 1 0.05 0 0.95 1
2
 0.03 1
8
 1 0 0 1 0.9 0.1 0 1
8
 1 0 0 1 0.4 0 0.6 1
8
 1 0 0 1 0.5 0 0.5 1
8
 1 0 0 1 0.9 0 0.1 1
8
 1 0 0 1 0.5 0 0.5 1
8
 1 0 0 1 0.5 0 0.5 1
8
 1 0 0 1 0 0 1 1
8
 1 0 0 1 0.89 0 0.11 1
8
 1 0 0 1 0.5 0 0.5 1
8
 1 0 0 1 0.4 0 0.6 1
8
 1 0 0 1 0.1 0 0.9 1
8
 1 0 0 1 0.5 0 0.5 1
8
 1 0 0 1 0.5 0 0.5 1
8
 1 0 0 1 0.1 0 0.9 1
8
 1 0 0 1 0 0 1 1
8
 1 0 0 1 0.5 0 0.5 1
8
 1 0 0 1 0.01 0 0.99 1
8
 1 0 0 1 0 0 1 1
8
 1 0 0 1 0 0 1 1
8
 1 0 0 1 0 0 1 1
8
 1 0 0 1 0.5 0 0.5 1
8
 1 0 0 1 0.9 0 0.1 1
8
 1 0 0 1 0.5 0 0.5 1
8
 1 0 0 1 0.9 0 0.1 1
8
 1 0 0 1 0 0 1 1
8
 1 0 0 1 0.1 0 0.9 1
8
 1 0 0 1 0.5 0 0.5 1
8
 1 0 0 1 0.5 0 0.5 1
8
 1 0 0 1 0.5 0 0.5 1
8
 1 0 0 1 0.09 0 0.91 1
8
 1 0 0 1 0.5 0 0.5 1
8
 1 0 0 1 0.1 0 0.9 1
8
 1 0 0 1 0.09 0 0.91 1
8
 1 0 0 1 0.5 0 0.5 1
8
 1 0 0 1 0.5 0 0.5 1
8
 1 0 0 1 0 0 1 1
8
 1 0 0 1 0.5 0 0.5 1
8
 1 0 0 1 0 0 1 1
8
 1 0 0 1 0.5 0 0.5 1
8
 1 0 0 1 0.1 0 0.9 1
8
 1 0 0 1 0.57 0 0.43 1
8
 1 0 0 1 0 0 1 1
8
 1 0 0 1 0.5 0 0.5 1
8
 1 0 0 1 0.5 0 0.5 1
8
 1 0 0 1 0 0 1 1
8
 1 0 0 1 0.7 0 0.3 1
8
 1 0 0 1 0.5 0 0.5 1
8
 1 0 0 1 0.1 0 0.9 1
8
 1 0 0 1 0.4 0 0.6 1
8
 1 0 0 1 0.5 0 0.5 1
8
 1 0 0 1 0 0 1 1
8
 1 0 0 1 0.5 0 0.5 1
8
 1 0 0 1 0.89 0 0.11 1
8
 1 0 0 1 0.5 0 0.5 1
8
 1 0 0 1 0.5 0 0.5 1
8
 1 0 0 1 0.5 0 0.5 1
8
 1 0 0 1 0.5 0 0.5 1
8
 1 0 0 1 0.4 0 0.6 1
8
 1 0 0 1 0.5 0 0.5 1
8
 1 0 0 1 0 0 1 1
8
 1 0 0 1 0 0 1 1
8
 1 0 0 1 0.1 0 0.9 1
8
 1 0 0 1 0 0 1 1
8
 1 0 0 1 0 0 1 1
8
 1 0 0 1 0.9 0 0.1 1
8
 1 0 0 1 0 0 1 1
8
 1 0 0 1 0 0 1 1
8
 1 0 0 1 0.6 0 0.4 1
8
 1 0 0 1 0.1 0 0.9 1
8
 1 0 0 1 0.4 0 0.6 1
8
 1 0 0 1 0 0 1 1
8
 1 0 0 1 0.09 0 0.91 1
8
 1 0 0 1 0 0 1 1
8
 1 0 0 1 0 0 1 1
8
 1 0 0 1 0 0 1 1
8
 1 0 0 1 0 0 1 1
8
 1 0 0 1 0 0 1 1
8
 1 0 0 1 0 0 1 1
8
 1 0 0 1 0.5 0 0.5 1
8
 1 0 0 1 0 0 1 1
8
 1 0 0 1 0.7 0 0.3 1
8
 1 0 0 1 0.5 0 0.5 1
8
 1 0 0 1 0.89 0 0.11 1
8
 1 0 0 1 0.9 0 0.1 1
8
 1 0 0 1 0 0 1 1
8
 1 0 0 1 0.9 0 0.1 1
8
 1 0 0 1 0.5 0 0.5 1
8
 1 0 0 1 0 0 1 1
8
 1 0 0 1 0 0 1 1
8
 1 0 0 1 0.5 0 0.5 1
8
 1 0 0 1 0.5 0 0.5 1
8
 1 0 0 1 0 0 1 1
8
 1 0 0 1 0.7 0 0.3 1
8
 1 0 0 1 0 0 1 1
8
 1 0 0 1 0.5 0 0.5 1
8
 1 0 0 1 0.9 0 0.1 1
8
 1 0 0 1 0 0 1 1
8
 1 0 0 1 0 0 1 1
8
 1 0 0 1 0 0 1 1
8
 1 0 0 1 0.09 0 0.91 1
8
 1 0 0 1 0 0 1 1
8
 1 0 0 1 0.9 0 0.1 1
8
 1 0 0 1 0.5 0 0.5 1
8
 1 0 0 1 0 0 1 1
8
 1 0 0 1 0.9 0 0.1 1
8
 1 0 0 1 0.9 0 0.1 1
8
 1 0 0 1 0 0 1 1
8
 1 0 0 1 0.5 0 0.5 1
8
 1 0 0 1 0.5 0 0.5 1
8
 1 0 0 1 0 0 1 1
8
 1 0 0 1 0.5 0 0.5 1
8
 1 0 0 1 0 0 1 1
8
 1 0 0 1 0.1 0 0.9 1
8
 1 0 0 1 0 0 1 1
8
 1 0 0 1 0 0 1 1
8
 1 0 0 1 0 0 1 1
8
 1 0 0 1 0.9 0 0.1 1
8
 1 0 0 1 0.01 0 0.99 1
2
 0.03 1
2
 0.9999 0.0001
2
 0.9995 0.0005
2
 0.99985 0.00015
2
 0.99995 5e-05
2
 0.9999 0.0001
2
 0.9999 0.0001
2
 0.99996 4e-05
2
 0.9996 0.0004
2
 0.9999 0.0001
2
 0.9999 0.0001
2
 0.99995 5e-05
2
 0.99999 1e-05
2
 0.99975 0.00025
2
 0.999 0.001
2
 0.99999 1e-05
2
 0.99995 5e-05
2
 0.997 0.003
2
 0.99987 0.00013
2
 0.9997 0.0003
2
 0.99999 1e-05
2
 0.9999 0.0001
2
 0.9999 0.0001
2
 0.99995 5e-05
2
 0.99995 5e-05
2
 0.99998 2e-05
2
 0.9999 0.0001
2
 0.99995 5e-05
2
 0.9999 0.0001
2
 0.99989 0.00011
2
 0.999999 1e-06
2
 0.99998 2e-05
2
 0.9995 0.0005
2
 0.9999 0.0001
2
 0.99998 2e-05
2
 0.9999 0.0001
2
 0.9999 0.0001
2
 0.99995 5e-05
2
 0.99998 2e-05
2
 0.9999 0.0001
2
 0.99999 1e-05
2
 0.9999 0.0001
2
 0.998 0.002
2
 0.99995 5e-05
2
 0.99974 0.00026
2
 0.999998 2e-06
2
 1 1.6e-07
2
 0.9999 0.0001
2
 0.99989 0.00011
2
 0.9999 0.0001
2
 0.99996 4e-05
2
 0.9998 0.0002
2
 0.999907 9.332e-05
2
 0.9999 0.0001
2
 0.9994 0.0006
2
 0.9998 0.0002
2
 0.9995 0.0005
2
 0.999969 3.12e-05
2
 0.9998 0.0002
2
 0.99998 2e-05
2
 0.99995 5e-05
2
 0.9999 0.0001
2
 0.9999 0.0001
2
 0.9999 0.0001
2
 0.9999 0.0001
2
 0.9999 0.0001
2
 0.99999 1e-05
2
 0.9999 0.0001
2
 0.9999 0.0001
2
 0.9999 0.0001
2
 0.99999 1e-05
2
 0.9998 0.0002
2
 0.9994 0.0006
2
 0.99998 2e-05
2
 0.9999 0.0001
2
 0.9995 0.0005
2
 0.99996 4e-05
2
 0.9999 0.0001
2
 0.99995 5e-05
2
 0.99995 5e-05
2
 0.99999 1e-05
2
 0.9999 0.0001
2
 0.9999 0.0001
2
 0.9999 0.0001
2
 0.99995 5e-05
2
 0.99982 0.00018
2
 0.99997 3e-05
2
 0.99997 3e-05
2
 0.9999 0.0001
2
 0.9985 0.0015
2
 0.9998 0.0002
2
 0.99995 5e-05
2
 0.9999 0.0001
2
 0.99991 9e-05
2
 0.99994 6e-05
2
 0.99998 2e-05
2
 0.99999 1e-05
2
 0.9999 0.0001
2
 0.9998 0.0002
2
 0.9999 0.0001
2
 0.9999 0.0001
2
 1 1e-07
2
 0.9995 0.0005
2
 0.9999 0.0001
2
 0.999997 2.88e-06
2
 0.99997 3e-05
2
 0.9999 0.0001
2
 0.9998 0.0002
2
 0.9999 0.0001
2
 0.99995 5e-05
2
 0.9998 0.0002
2
 0.9998 0.0002
2
 0.9999 0.0001
2
 0.99999 1e-05
2
 0.99995 5e-05
2
 0.9995 0.0005
2
 0.9999 0.0001
2
 0.9995 0.0005
2
 0.9999 0.0001
2
 0.9999 0.0001
2
 0.9999 0.0001
2
 0.99997 3e-05
2
 0.99984 0.00016
2
 0.9999 0.0001
2
 0.99999 1e-05
2
 0.9999 0.0001
2
 0.99996 4e-05
2
 0.999 0.001
2
 0.9999 0.0001
2
 0.9999 0.0001
2
 0.998 0.002
2
 0.9999 0.0001
2
 0.9999 0.0001
2
 0.9999 0.0001
2
 0.99995 5e-05
2
 0.99998 2e-05
2
 0.99997 3e-05
2
 0.99998 2e-05
2
 0.9999 0.0001
2
 0.9999 0.0001
2
 0.99993 7e-05
1
 0.5

